0 67 72
1 50 78
2 80 83
3 48 84
4 71 84
5 62 80
6 68 79
7 67 78
8 65 77
9 67 77
10 47 75
11 68 73
12 62 71
13 69 70
14 52 69
15 31 70
16 63 68
17 62 69
18 39 67
19 55 66
20 59 64
21 58 63
22 60 60
23 56 59
24 58 58
25 51 55
26 56 56
27 44 54
28 42 53
29 44 52
30 40 53
31 52 52
32 39 51
33 53 53
34 48 52
35 51 52
36 51 52
37 41 52
38 47 51
39 34 50
40 47 47
41 40 46
42 43 43
43 34 43
44 39 42
45 35 41
46 41 41
47 26 40
48 29 39
49 37 37
50 35 36
51 33 33
52 31 32
53 16 28
54 28 30
55 19 31
56 24 31
57 11 30
58 29 29
59 17 27
60 28 28
61 23 28
62 18 26
63 14 25
64 21 22
65 18 21
66 15 19
67 16 16
68 14 15
69 13 13
70 10 12
71 8 11
72 10 12
73 10 12
74 13 14
75 13 14
76 12 14
77 14 14
78 14 14
79 13 16
80 14 15
81 3 13
82 9 12
83 10 12
84 5 10
85 8 8
86 2 7
87 4 8
88 6 7
89 1 5
90 2 4
91 2 3
92 1 1
93 1 2
94 1 1

